14-c1-6-39.xyz                          
   1.00000000000000     
    26.5825648440000002    0.0000000000000000    0.0000000000000000
     0.0000000000000000   26.2433979949999987    0.0000000000000000
     0.0000000000000000    0.0000000000000000   24.3762947330000017
   Ag
    14
Direct
  0.5978379352421992  0.7557085129745642  0.6448510006955683
  0.5498300726215296  0.5234476420266237  0.4982736693786470
  0.7359874636478005  0.5247923299294150  0.6055172884664781
  0.4950347943277640  0.6132348497133422  0.5146741866244265
  0.7014659517038923  0.6022745074370955  0.5369612600521250
  0.6785570822484078  0.6937617823419100  0.6881649786032455
  0.7471036091297198  0.6296829791036636  0.6372858615593437
  0.5433440568801663  0.6894323160940685  0.5723526150917548
  0.6399415603114862  0.5173180632054724  0.5544010970850213
  0.5810514770938158  0.6542334879766338  0.6721980760599912
  0.6023559086625236  0.6168949975020418  0.5063424887610484
  0.6543174313227788  0.5844780045616687  0.6447337159821429
  0.5570965587135092  0.5771790235869864  0.6000822710756436
  0.6494661670515804  0.6828864730236669  0.5808768144701433
 
  0.00000000E+00  0.00000000E+00  0.00000000E+00
  0.00000000E+00  0.00000000E+00  0.00000000E+00
  0.00000000E+00  0.00000000E+00  0.00000000E+00
  0.00000000E+00  0.00000000E+00  0.00000000E+00
  0.00000000E+00  0.00000000E+00  0.00000000E+00
  0.00000000E+00  0.00000000E+00  0.00000000E+00
  0.00000000E+00  0.00000000E+00  0.00000000E+00
  0.00000000E+00  0.00000000E+00  0.00000000E+00
  0.00000000E+00  0.00000000E+00  0.00000000E+00
  0.00000000E+00  0.00000000E+00  0.00000000E+00
  0.00000000E+00  0.00000000E+00  0.00000000E+00
  0.00000000E+00  0.00000000E+00  0.00000000E+00
  0.00000000E+00  0.00000000E+00  0.00000000E+00
  0.00000000E+00  0.00000000E+00  0.00000000E+00
