14-c1-6-39.xyz
1.0
          26.582564844            0.000000000            0.000000000
           0.000000000           26.243397995            0.000000000
           0.000000000            0.000000000           24.376294733
   Ag
   14
Cartesian
     15.922839022428573         19.84464686257143         15.70843863007143
     14.620907219428572         13.72563242357143         12.19719229207143
     19.555454001428572         13.75292274757143         14.76903416307143
     13.267224058428573         16.15546819757143         12.45147547907143
     18.65797534142857         15.90384771557143         13.15484842707143
     18.12656591242857         18.30653064657143         16.57348702507143
     19.84978890242857         16.39426473057143         15.703632228071429
     14.251522361428572         18.06689820857143         14.162877838071429
     17.055136003428572         13.60124886757143         13.475473391071429
     15.570770976428571         17.133126105571428         16.43389264907143
     16.052090964428572         16.16006593557143         12.24017989907143
     17.35102770142857         15.24071646257143         15.72250062207143
     14.819313238428572         15.18580020257143         14.60573744407143
     17.05529211242857         17.93640282357143         14.06935617407143
