13-c2-1-71.xyz                          
   1.00000000000000     
    25.3403634569999987    0.0000000000000000    0.0000000000000000
     0.0000000000000000   26.6042305520000006    0.0000000000000000
     0.0000000000000000    0.0000000000000000   25.2808117289999998
   Ag
    13
Direct
  0.7225344611162171  0.5731004630645882  0.6395524461931322
  0.5936360787271200  0.5216147149053741  0.5083587073235817
  0.5093935276709058  0.7175589315633495  0.5591349537838385
  0.6045186084545808  0.6845992440421562  0.7222730124909905
  0.6493396822815310  0.4999377960352321  0.6061673409504590
  0.5869461028129821  0.7504090902140207  0.6366492366604989
  0.5506608589692071  0.5477043658489299  0.6063333948078384
  0.5431369962056789  0.6190727791493136  0.5221447453389350
  0.6167028390192044  0.6973131098790986  0.5456740301213537
  0.6222615807968811  0.5833973619998566  0.6809401908093105
  0.6714594740284286  0.6715494822481936  0.6371019179348091
  0.5537387288313695  0.6504826360684974  0.6300321315452073
  0.6455157568576485  0.5968191355933208  0.5633979436734029
 
  0.00000000E+00  0.00000000E+00  0.00000000E+00
  0.00000000E+00  0.00000000E+00  0.00000000E+00
  0.00000000E+00  0.00000000E+00  0.00000000E+00
  0.00000000E+00  0.00000000E+00  0.00000000E+00
  0.00000000E+00  0.00000000E+00  0.00000000E+00
  0.00000000E+00  0.00000000E+00  0.00000000E+00
  0.00000000E+00  0.00000000E+00  0.00000000E+00
  0.00000000E+00  0.00000000E+00  0.00000000E+00
  0.00000000E+00  0.00000000E+00  0.00000000E+00
  0.00000000E+00  0.00000000E+00  0.00000000E+00
  0.00000000E+00  0.00000000E+00  0.00000000E+00
  0.00000000E+00  0.00000000E+00  0.00000000E+00
  0.00000000E+00  0.00000000E+00  0.00000000E+00
