13-c2-1-71.xyz
1.0
          25.340363457            0.000000000            0.000000000
           0.000000000           26.604230552            0.000000000
           0.000000000            0.000000000           25.280811729
   Ag
   13
Cartesian
     18.297866041076922         15.221698638846155         16.112151924
     15.052741551076924         13.859460476846154         12.924658920999999
     12.957502584076924         19.146009787846154         14.112966953
     15.392792744076925         18.208589469846153         18.20547065
     16.433279360076924         13.344826987846155         15.341196735
     14.772796609076924         19.949057539846155         16.131053146
     13.923319778076925         14.586025069846155         15.357550763999999
     13.842690287076925         16.454067348846156         13.117962694000001
     15.613792001076924         18.525763844846153         13.890005365
     15.737793964076925         15.512667571846155         17.19805088
     17.114668687076925         17.855353706846156         16.085522889
     13.923293292076924         17.278230628846156         15.93537297
     16.362188042076923         15.913246103846154         14.238588586
