10-c1-10-39.xyz                         
   1.00000000000000     
    24.4010216150000012    0.0000000000000000    0.0000000000000000
     0.0000000000000000   24.9997972630000014    0.0000000000000000
     0.0000000000000000    0.0000000000000000   24.2905183869999988
   Ag
    10
Direct
  0.5238935427078476  0.6381649237395780  0.5696223795980355
  0.6525824842844399  0.5051485727325484  0.4944199558678605
  0.5099611966175881  0.5396453475130588  0.6227052434747669
  0.5479567929179936  0.5446600957539069  0.5130218950033381
  0.5229051673568118  0.7048434034442919  0.6660962478220104
  0.6336654688507093  0.6153855987162071  0.5234785567707050
  0.6898466261006272  0.6154620464738039  0.6240906783670351
  0.6144033410669706  0.6973440211973347  0.5983427535121639
  0.5837758430736599  0.6114313140478036  0.6695654335000152
  0.6228204702784081  0.5278822381984125  0.6018241723683203
 
  0.00000000E+00  0.00000000E+00  0.00000000E+00
  0.00000000E+00  0.00000000E+00  0.00000000E+00
  0.00000000E+00  0.00000000E+00  0.00000000E+00
  0.00000000E+00  0.00000000E+00  0.00000000E+00
  0.00000000E+00  0.00000000E+00  0.00000000E+00
  0.00000000E+00  0.00000000E+00  0.00000000E+00
  0.00000000E+00  0.00000000E+00  0.00000000E+00
  0.00000000E+00  0.00000000E+00  0.00000000E+00
  0.00000000E+00  0.00000000E+00  0.00000000E+00
  0.00000000E+00  0.00000000E+00  0.00000000E+00
