10-c1-10-39.xyz
1.0
          24.401021615            0.000000000            0.000000000
           0.000000000           24.999797263            0.000000000
           0.000000000            0.000000000           24.290518387
   Ag
   10
Cartesian
     12.760657863899999         15.964601155999999         13.819984082
     15.9266110039         12.622692694         12.009559314999999
     12.436598596899998         13.491175147999998         15.125757662
     13.363357074899998         13.624465193999999         12.458717312
     12.761356938899999         17.622489957         16.181528498
     15.470069110899999         15.398479126999998         12.694942436
     16.8376202119         15.389857718999998         15.154887970999999
     14.9980877419         17.432583874         14.521733245
     14.2432869899         15.268482503999998         16.300077702
     15.212570616899999         13.183145257         14.637995647
