17-c1-1-39.xyz                          
   1.00000000000000     
    26.3776209190000017    0.0000000000000000    0.0000000000000000
     0.0000000000000000   26.7369718570000003    0.0000000000000000
     0.0000000000000000    0.0000000000000000   25.3039094780000013
   Ag
    17
Direct
  0.5808400205219691  0.5335544883920722  0.5621989387608058
  0.6723263470637393  0.7630151788751293  0.6129675351004583
  0.6042647468829671  0.7366935869952692  0.5305722848238056
  0.5124290265329007  0.6900114903296982  0.5586595670515111
  0.5968562699126443  0.6332136864753289  0.7166715366146991
  0.4978108714807248  0.5887774483643199  0.5277034204041685
  0.6871059140718162  0.6753720193462358  0.5541578664060323
  0.5931072739745438  0.6335848307615742  0.5129193756898714
  0.6769598567705036  0.5091810192082550  0.6157699435820424
  0.7403400816835437  0.5984045136217712  0.6154407767384157
  0.5290643173700241  0.6124454912597244  0.6307334674049215
  0.6857437216843201  0.5734410422677850  0.7102600990936043
  0.5887386966537367  0.5315454097565803  0.6782573517714883
  0.6786151652218845  0.5720776214486928  0.5253284692342718
  0.6896073744620104  0.6786211336354546  0.6748363886419920
  0.5863999290354405  0.7054048075733709  0.6368405625829457
  0.6349331904185789  0.6064193711636270  0.6183529758279614
 
  0.00000000E+00  0.00000000E+00  0.00000000E+00
  0.00000000E+00  0.00000000E+00  0.00000000E+00
  0.00000000E+00  0.00000000E+00  0.00000000E+00
  0.00000000E+00  0.00000000E+00  0.00000000E+00
  0.00000000E+00  0.00000000E+00  0.00000000E+00
  0.00000000E+00  0.00000000E+00  0.00000000E+00
  0.00000000E+00  0.00000000E+00  0.00000000E+00
  0.00000000E+00  0.00000000E+00  0.00000000E+00
  0.00000000E+00  0.00000000E+00  0.00000000E+00
  0.00000000E+00  0.00000000E+00  0.00000000E+00
  0.00000000E+00  0.00000000E+00  0.00000000E+00
  0.00000000E+00  0.00000000E+00  0.00000000E+00
  0.00000000E+00  0.00000000E+00  0.00000000E+00
  0.00000000E+00  0.00000000E+00  0.00000000E+00
  0.00000000E+00  0.00000000E+00  0.00000000E+00
  0.00000000E+00  0.00000000E+00  0.00000000E+00
  0.00000000E+00  0.00000000E+00  0.00000000E+00
