17-c1-1-39.xyz
1.0
          26.377620919            0.000000000            0.000000000
           0.000000000           26.736971857            0.000000000
           0.000000000            0.000000000           25.303909478
   Ag
   17
Cartesian
     15.35011480982353         14.220328548764705         14.202003425058823
     17.73412783382353         20.363150853764704         15.529699395058824
     15.953170961823531         19.675574739764706         13.424253422058824
     13.53644564082353         18.433161180764706         14.137559125058825
     15.72364921982353         16.925820088764706         18.166660677058825
     13.15684877982353         15.721764205764705         13.376832541058825
     18.192311707823528         18.053938690764706         13.940545414058825
     15.669598740823531         16.926715605764706         12.862751199058824
     17.87336904782353         13.626178996764706         15.592491660058824
     19.53446969882353         16.020931610764706         15.573656832058823
     13.88163204882353         16.387936421764707         16.034009797058825
     18.07898038682353         15.329658477764706         17.978766699058824
     15.506364602823531         14.216404790764706         17.135944072058823
     17.93228470882353         15.279055077764706         13.272760534058824
     18.20146284082353         18.143834008764706         17.130913801058824
     15.38867085282353         18.919568810764705         16.200848361058824
     16.70605374082353         16.284499459764707         15.606764171058824
