12-c1-7-75.xyz                          
   1.00000000000000     
    25.0973119999999987    0.0000000000000000    0.0000000000000000
     0.0000000000000000   26.3970291770000003    0.0000000000000000
     0.0000000000000000    0.0000000000000000   25.4510999099999999
   Ag
    12
Direct
  0.4946780954414512  0.5461019666178989  0.6855890588680237
  0.5049905387044964  0.6164029589976687  0.6033790112893431
  0.6928950178795331  0.6060049775512139  0.4835535349639122
  0.6687475839639463  0.7530614559408572  0.6267839418733734
  0.5296166426422193  0.5165372469467621  0.5823678138233065
  0.5741206338586954  0.6960956067139984  0.6031540464607953
  0.5931098743942387  0.6025434418134433  0.5403165936839557
  0.6547918676716927  0.6529333418150665  0.6635659688598960
  0.5438027437904037  0.6421599316760681  0.7016839936370248
  0.6745597251667677  0.6797103548805462  0.5537728689623033
  0.6888074958805381  0.5782610752364794  0.5905880682060733
  0.5984912398730632  0.5642215334512066  0.6503211697837558
 
  0.00000000E+00  0.00000000E+00  0.00000000E+00
  0.00000000E+00  0.00000000E+00  0.00000000E+00
  0.00000000E+00  0.00000000E+00  0.00000000E+00
  0.00000000E+00  0.00000000E+00  0.00000000E+00
  0.00000000E+00  0.00000000E+00  0.00000000E+00
  0.00000000E+00  0.00000000E+00  0.00000000E+00
  0.00000000E+00  0.00000000E+00  0.00000000E+00
  0.00000000E+00  0.00000000E+00  0.00000000E+00
  0.00000000E+00  0.00000000E+00  0.00000000E+00
  0.00000000E+00  0.00000000E+00  0.00000000E+00
  0.00000000E+00  0.00000000E+00  0.00000000E+00
  0.00000000E+00  0.00000000E+00  0.00000000E+00
