12-c1-7-75.xyz
1.0
          25.097312000            0.000000000            0.000000000
           0.000000000           26.397029177            0.000000000
           0.000000000            0.000000000           25.451099910
   Ag
   12
Cartesian
     12.482147393333335         14.720457270583333         17.609198402416666
     12.739829138333334         16.118964490583334         15.162110278416666
     17.579459393333334         16.180481390583335         12.308204245416666
     16.498254608333333         19.777702099583333         16.158581655416665
     12.839115817333335         13.380672922583333         15.207231496416666
     14.362817522333335         18.255607253583335         15.245752456416666
     15.038104052333335         16.024600115583333         13.642336976416667
     16.468661024333336         17.080851263583334         16.863060314416668
     13.797556269333334         17.112862873583335         17.759304155416665
     17.006849612333333         18.047636419583334         14.177404030416666
     17.359158500333336         15.246601323583334         14.967004177416666
     14.995790668333335         14.817912700583333         16.313010731416668
